sat
(model 
  (define-fun O_instructor () (Array Int instructor_TupleType)
    (lambda ((x!1 Int))
  (let ((a!1 (ite (and (<= 2 x!1) (not (<= 3 x!1)))
                  (instructor_TupleType
                    _ID__10101
                    _NAME__Einstein
                    _DEPT_uNAME__Physics
                    40000.0)
                  (instructor_TupleType
                    _ID__22222
                    _NAME__Katz
                    _DEPT_uNAME__History
                    46798.0))))
    (ite (and (<= 2 x!1) (<= 3 x!1))
         (instructor_TupleType
           _ID__12121
           _NAME__Katz
           _DEPT_uNAME__Finance
           46798.0)
         (ite (<= 2 x!1)
              a!1
              (instructor_TupleType
                _ID__10101
                _NAME__Einstein
                _DEPT_uNAME__Physics
                40000.0))))))
  (define-fun O_department () (Array Int department_TupleType)
    (lambda ((x!1 Int))
  (let ((a!1 (ite (and (<= 2 x!1) (not (<= 3 x!1)))
                  (department_TupleType
                    _DEPT_uNAME__History
                    _BUILDING__Taylor
                    111985.0)
                  (department_TupleType
                    _DEPT_uNAME__Music
                    _BUILDING__Painter
                    46798.0))))
  (let ((a!2 (ite (and (<= 2 x!1) (<= 3 x!1) (not (<= 4 x!1)))
                  (department_TupleType
                    _DEPT_uNAME__Finance
                    _BUILDING__Taylor
                    50000.0)
                  a!1)))
  (let ((a!3 (ite (and (<= 2 x!1)
                       (<= 3 x!1)
                       (<= 4 x!1)
                       (<= 5 x!1)
                       (not (<= 6 x!1)))
                  (department_TupleType
                    _DEPT_uNAME__Physics
                    _BUILDING__Taylor
                    108555.0)
                  a!2)))
  (let ((a!4 (ite (and (<= 2 x!1)
                       (<= 3 x!1)
                       (<= 4 x!1)
                       (<= 5 x!1)
                       (<= 6 x!1)
                       (not (<= 7 x!1)))
                  (department_TupleType
                    _DEPT_uNAME__Physics
                    _BUILDING__Taylor
                    108555.0)
                  (ite (and (<= 2 x!1)
                            (<= 3 x!1)
                            (<= 4 x!1)
                            (<= 5 x!1)
                            (<= 6 x!1)
                            (<= 7 x!1))
                       (department_TupleType
                         _DEPT_uNAME__Finance
                         _BUILDING__Taylor
                         50000.0)
                       a!3))))
  (let ((a!5 (ite (and (<= 2 x!1) (<= 3 x!1) (<= 4 x!1) (not (<= 5 x!1)))
                  (department_TupleType
                    _DEPT_uNAME__History
                    _BUILDING__Taylor
                    111985.0)
                  a!4)))
    (ite (<= 2 x!1)
         a!5
         (department_TupleType _DEPT_uNAME__Finance _BUILDING__Taylor 50000.0)))))))))
  (define-fun O_section () (Array Int section_TupleType)
    (lambda ((x!1 Int))
  (ite (<= 2 x!1)
       (section_TupleType
         _COURSE_uID__BIO_m301
         _SEC_uID__2
         _SEMESTER__Summer
         2010
         _BUILDING__Packard
         _ROOM_uNUMBER__3128
         _TIME_uSLOT_uID__B)
       (section_TupleType
         _COURSE_uID__CS_m347
         _SEC_uID__2
         _SEMESTER__Summer
         2009
         _BUILDING__Taylor
         _ROOM_uNUMBER__120
         _TIME_uSLOT_uID__C))))
  (define-fun O_course () (Array Int course_TupleType)
    (lambda ((x!1 Int))
  (let ((a!1 (ite (and (<= 2 x!1) (not (<= 3 x!1)))
                  (course_TupleType _COURSE_uID__BIO_m301
                                    _TITLE__Robotics
                                    _DEPT_uNAME__History
                                    3)
                  (course_TupleType _COURSE_uID__FIN_m201
                                    _TITLE__Music_ubVideo_ubProduction
                                    _DEPT_uNAME__History
                                    2))))
  (let ((a!2 (ite (and (<= 2 x!1) (<= 3 x!1) (not (<= 4 x!1)))
                  (course_TupleType _COURSE_uID__CS_m347
                                    _TITLE__Music_ubVideo_ubProduction
                                    _DEPT_uNAME__Finance
                                    4)
                  a!1)))
    (ite (<= 2 x!1)
         (ite (and (<= 2 x!1) (<= 3 x!1) (<= 4 x!1))
              (course_TupleType _COURSE_uID__BIO_m301
                                _TITLE__Robotics
                                _DEPT_uNAME__History
                                3)
              a!2)
         (course_TupleType _COURSE_uID__CS_m347
                           _TITLE__Music_ubVideo_ubProduction
                           _DEPT_uNAME__Finance
                           4))))))
  (define-fun O_classroom () (Array Int classroom_TupleType)
    (lambda ((x!1 Int))
  (ite (<= 2 x!1)
       (classroom_TupleType _BUILDING__Packard _ROOM_uNUMBER__3128 123)
       (classroom_TupleType _BUILDING__Taylor _ROOM_uNUMBER__120 10))))
  (define-fun O_teaches () (Array Int teaches_TupleType)
    (lambda ((x!1 Int))
  (ite (<= 2 x!1)
       (teaches_TupleType
         _ID__12121
         _COURSE_uID__BIO_m301
         _SEC_uID__2
         _SEMESTER__Summer
         2010)
       (teaches_TupleType
         _ID__10101
         _COURSE_uID__CS_m347
         _SEC_uID__2
         _SEMESTER__Summer
         2009))))
  (define-fun realNullVal () Real
    (- 99996.0))
  (define-fun intNullVal () Int
    (- 99996))
  (define-fun MIN_REPLACE_NULL_Real ((x!0 Real)) Real
    (ite (= x!0 (- 99996.0)) 99996.0
      x!0))
  (define-fun ISNULL_TITLE ((x!0 TITLE)) Bool
    (= x!0 NULL_TITLE_1))
  (define-fun ISNULL_ID ((x!0 ID)) Bool
    (= x!0 NULL_ID_1))
  (define-fun CHECKALL_NULLInt ((x!0 Int)) Bool
    (= x!0 (- 99996)))
  (define-fun ISNULL_BUDGET ((x!0 Real)) Bool
    (= x!0 (- 99996.0)))
  (define-fun checkCAPACITY ((x!0 Int)) Bool
    (or (= x!0 (- 99996)) (and (not (<= x!0 9)) (not (>= x!0 501)))))
  (define-fun MAX_REPLACE_NULL_Real ((x!0 Real)) Real
    (ite (= x!0 (- 99996.0)) (- 99996.0)
      x!0))
  (define-fun MIN_REPLACE_NULL_Int ((x!0 Int)) Int
    (ite (= x!0 (- 99996)) 99996
      x!0))
  (define-fun ISNULL_COURSE_ID ((x!0 COURSE_ID)) Bool
    (= x!0 NULL_COURSE_ID_1))
  (define-fun ISNULL_ROOM_NUMBER ((x!0 ROOM_NUMBER)) Bool
    (= x!0 NULL_ROOM_NUMBER_1))
  (define-fun ISNULL_SEMESTER ((x!0 SEMESTER)) Bool
    (= x!0 NULL_SEMESTER_1))
  (define-fun ISNULL_NAME ((x!0 NAME)) Bool
    (= x!0 NULL_NAME_1))
  (define-fun SUM_REPLACE_NULL_Real ((x!0 Real)) Real
    (ite (= x!0 (- 99996.0)) 0.0
      x!0))
  (define-fun checkYEAR ((x!0 Int)) Bool
    (or (= x!0 (- 99996)) (and (not (<= x!0 2008)) (not (>= x!0 2011)))))
  (define-fun ISNULL_YEAR ((x!0 Int)) Bool
    (= x!0 (- 99996)))
  (define-fun ISNULL_BUILDING ((x!0 BUILDING)) Bool
    (= x!0 NULL_BUILDING_1))
  (define-fun MAX_REPLACE_NULL_Int ((x!0 Int)) Int
    (ite (= x!0 (- 99996)) (- 99996)
      x!0))
  (define-fun ISNULL_TIME_SLOT_ID ((x!0 TIME_SLOT_ID)) Bool
    (= x!0 NULL_TIME_SLOT_ID_1))
  (define-fun checkBUDGET ((x!0 Real)) Bool
    (or (= x!0 (- 99996.0)) (and (>= x!0 50000.0) (<= x!0 120000.0))))
  (define-fun CHECKALL_NULLReal ((x!0 Real)) Bool
    (= x!0 (- 99996.0)))
  (define-fun ISNULL_SEC_ID ((x!0 SEC_ID)) Bool
    (= x!0 NULL_SEC_ID_1))
  (define-fun ISNULL_DEPT_NAME ((x!0 DEPT_NAME)) Bool
    (= x!0 NULL_DEPT_NAME_1))
  (define-fun SUM_REPLACE_NULL_Int ((x!0 Int)) Int
    (ite (= x!0 (- 99996)) 0
      x!0))
  (define-fun ISNULL_SALARY ((x!0 Real)) Bool
    (= x!0 (- 99996.0)))
  (define-fun checkCREDITS ((x!0 Int)) Bool
    (or (= x!0 (- 99996)) (and (not (<= x!0 2)) (not (>= x!0 5)))))
  (define-fun ISNULL_CAPACITY ((x!0 Int)) Bool
    (= x!0 (- 99996)))
  (define-fun checkSALARY ((x!0 Real)) Bool
    (or (and (>= x!0 40000.0) (<= x!0 95000.0)) (= x!0 (- 99996.0))))
  (define-fun ISNULL_CREDITS ((x!0 Int)) Bool
    (= x!0 (- 99996)))
)
